\ENCODING=ISO-8859-1
\Problem name: IloCplex

Minimize
 obj1: x_a_0 + 3 x_a_1 + 3 x_a_2 + x_a_3 + x_a_4 + 2 x_a_5 + 2 x_a_6 + x_a_7
       + x_a_8 + x_a_9 + 3 x_a_10 + 3 x_a_11 + x_a_12 + 3 x_a_13 + 2 x_a_14
       + 2 x_a_15 + 3 x_a_16 + x_a_17 + 2 x_a_18 + 3 x_a_19 + x_a_20 + 2 x_a_21
       + x_a_22 + x_a_23 + x_a_24 + 2 x_a_25 + 2 x_a_26 + x_a_27 + 2 x_a_28
       + 3 x_a_29 + 2 x_a_30 + x_a_31 + x_a_32 + x_a_33 + x_a_34 + 3 x_a_35
       + 2 x_a_36 + 3 x_a_37 + 3 x_a_38 + 2 x_a_39 + 2 x_a_40 + 2 x_a_41
       + 3 x_a_42 + 3 x_a_43 + 3 x_a_44 + x_a_45 + x_a_46 + x_a_47 + 2 x_a_48
       + x_a_49 + 2 x_a_50 + 3 x_a_51 + x_a_52 + 3 x_a_53 + 2 x_a_54 + 2 x_a_55
       + 2 x_a_56 + x_a_57 + 2 x_a_58 + 3 x_a_59 + 2 x_a_60 + 2 x_a_61 + x_a_62
       + 2 x_a_63 + 3 x_a_64 + 1000000000 x_a_65 + 1000000000 x_a_66
       + 1000000000 x_a_67 + 1000000000 x_a_68 + 1000000000 x_a_69
       + 1000000000 x_a_70 + 1000000000 x_a_71 + 1000000000 x_a_72
       + 10000 x_a_73
Subject To
 c1:  y_a_65 + y_a_66 + y_a_67 + y_a_68 <= 169.2
 c2:  - y_a_67 + y_a_0 + y_a_1 + y_a_2 + y_a_3 + y_a_4 + y_a_5 + y_a_6 + y_a_7
       = 0
 c3:  - y_a_0 + y_a_8 + y_a_9 + y_a_10 + y_a_11 + y_a_12 + y_a_13 + y_a_14
      + y_a_15  = 0
 c4:  - y_a_1 - y_a_8 + y_a_16 + y_a_17 + y_a_18 + y_a_19 + y_a_20  = 0
 c5:  - y_a_2 - y_a_9 + y_a_21 + y_a_22 + y_a_23 + y_a_24 + y_a_25 + y_a_26
      + y_a_27  = 0
 c6:  - y_a_3 - y_a_10 + y_a_28 + y_a_29 + y_a_30 + y_a_31 + y_a_32 + y_a_33
      + y_a_34 + y_a_35  = 0
 c7:  - y_a_11 - y_a_28 + y_a_36 + y_a_37 + y_a_38 + y_a_39  = 0
 c8:  - y_a_12 - y_a_21 - y_a_29 + y_a_40 + y_a_41 + y_a_42  = 0
 c9:  - y_a_4 - y_a_30 - y_a_40 + y_a_43 + y_a_44 + y_a_45 + y_a_46  = 0
 c10: - y_a_5 - y_a_13 - y_a_16 - y_a_22 - y_a_41 - y_a_43 + y_a_47 + y_a_48
      + y_a_49 + y_a_50 + y_a_51  = 0
 c11: - y_a_14 - y_a_31 - y_a_36 - y_a_44 + y_a_52 + y_a_53 + y_a_70 + y_a_72
       = 0
 c12: - y_a_23 - y_a_32 + y_a_54 + y_a_55  = 0
 c13: - y_a_15 - y_a_17 - y_a_24 - y_a_45 - y_a_47 + y_a_56 + y_a_57 + y_a_69
       = 0
 c14: - y_a_65 - y_a_68 - y_a_25 - y_a_33 - y_a_46 - y_a_48 - y_a_52 + y_a_58
      + y_a_59  = 0
 c15: - y_a_18 - y_a_42 + y_a_60  = 0
 c16: - y_a_66 - y_a_19 - y_a_34 - y_a_49 - y_a_58 - y_a_60 + y_a_61 + y_a_62
       = 0
 c17: - y_a_6 - y_a_20 - y_a_26 - y_a_37 - y_a_50 - y_a_54 - y_a_56 + y_a_63
       = 0
 c18: - y_a_27 - y_a_35 - y_a_38 - y_a_51 - y_a_55 - y_a_59 - y_a_61 + y_a_64
      + y_a_71  = 0
 c19: - y_a_7 - y_a_39 - y_a_53 - y_a_57 - y_a_62 - y_a_63 - y_a_64  = 0
 c20: y_a_65 + y_a_66 + y_a_67 + y_a_68 - y_a_73  = 0
 c21: - y_a_70 - y_a_72 - y_a_69 - y_a_71 + y_a_73  = 0
 c22: y_a_0 + 23 x_a_0 <= 23
 c23: y_a_1 + 16 x_a_1 <= 16
 c24: y_a_2 + 47 x_a_2 <= 47
 c25: y_a_3 + 43 x_a_3 <= 43
 c26: y_a_4 + 29 x_a_4 <= 29
 c27: y_a_5 + 37 x_a_5 <= 37
 c28: y_a_6 + 9 x_a_6 <= 9
 c29: y_a_7 + 26 x_a_7 <= 26
 c30: y_a_8 + 25 x_a_8 <= 25
 c31: y_a_9 + 27 x_a_9 <= 27
 c32: y_a_10 + x_a_10 <= 1
 c33: y_a_11 + 9 x_a_11 <= 9
 c34: y_a_12 + 25 x_a_12 <= 25
 c35: y_a_13 + 24 x_a_13 <= 24
 c36: y_a_14 + 37 x_a_14 <= 37
 c37: y_a_15 + 36 x_a_15 <= 36
 c38: y_a_16 + 17 x_a_16 <= 17
 c39: y_a_17 + 6 x_a_17 <= 6
 c40: y_a_18 + 39 x_a_18 <= 39
 c41: y_a_19 + 20 x_a_19 <= 20
 c42: y_a_20 + 6 x_a_20 <= 6
 c43: y_a_21 + 42 x_a_21 <= 42
 c44: y_a_22 + x_a_22 <= 1
 c45: y_a_23 + 23 x_a_23 <= 23
 c46: y_a_24 + 36 x_a_24 <= 36
 c47: y_a_25 + 44 x_a_25 <= 44
 c48: y_a_26 + 33 x_a_26 <= 33
 c49: y_a_27 + 25 x_a_27 <= 25
 c50: y_a_28 + 40 x_a_28 <= 40
 c51: y_a_29 + x_a_29 <= 1
 c52: y_a_30 + 10 x_a_30 <= 10
 c53: y_a_31 + 41 x_a_31 <= 41
 c54: y_a_32 + 47 x_a_32 <= 47
 c55: y_a_33 + 32 x_a_33 <= 32
 c56: y_a_34 + 37 x_a_34 <= 37
 c57: y_a_35 + 39 x_a_35 <= 39
 c58: y_a_36 + 41 x_a_36 <= 41
 c59: y_a_37 + 12 x_a_37 <= 12
 c60: y_a_38 + 4 x_a_38 <= 4
 c61: y_a_39 + 2 x_a_39 <= 2
 c62: y_a_40 + 16 x_a_40 <= 16
 c63: y_a_41 + 11 x_a_41 <= 11
 c64: y_a_42 + 42 x_a_42 <= 42
 c65: y_a_43 + 41 x_a_43 <= 41
 c66: y_a_44 + 41 x_a_44 <= 41
 c67: y_a_45 + 14 x_a_45 <= 14
 c68: y_a_46 + 7 x_a_46 <= 7
 c69: y_a_47 + 40 x_a_47 <= 40
 c70: y_a_48 + 9 x_a_48 <= 9
 c71: y_a_49 + 14 x_a_49 <= 14
 c72: y_a_50 + 32 x_a_50 <= 32
 c73: y_a_51 + 9 x_a_51 <= 9
 c74: y_a_52 + 35 x_a_52 <= 35
 c75: y_a_53 + 48 x_a_53 <= 48
 c76: y_a_54 + 49 x_a_54 <= 49
 c77: y_a_55 + 43 x_a_55 <= 43
 c78: y_a_56 + 18 x_a_56 <= 18
 c79: y_a_57 + 49 x_a_57 <= 49
 c80: y_a_58 + 32 x_a_58 <= 32
 c81: y_a_59 + 43 x_a_59 <= 43
 c82: y_a_60 + 16 x_a_60 <= 16
 c83: y_a_61 + 44 x_a_61 <= 44
 c84: y_a_62 + 22 x_a_62 <= 22
 c85: y_a_63 + 14 x_a_63 <= 14
 c86: y_a_64 + 35 x_a_64 <= 35
 c87: y_a_65 + 50000000 x_a_65 <= 50000000
 c88: y_a_66 + 50000000 x_a_66 <= 50000000
 c89: y_a_67 + 50000000 x_a_67 <= 50000000
 c90: y_a_68 + 50000000 x_a_68 <= 50000000
 c91: y_a_69 + 50000000 x_a_69 <= 50000000
 c92: y_a_70 + 50000000 x_a_70 <= 50000000
 c93: y_a_71 + 50000000 x_a_71 <= 50000000
 c94: y_a_72 + 50000000 x_a_72 <= 50000000
 c95: y_a_73 + 10000 x_a_73 <= 10000
Bounds
 0 <= y_a_65 <= 50000000
 0 <= y_a_66 <= 50000000
 0 <= y_a_67 <= 50000000
 0 <= y_a_68 <= 50000000
 0 <= y_a_0 <= 23
 0 <= y_a_1 <= 16
 0 <= y_a_2 <= 47
 0 <= y_a_3 <= 43
 0 <= y_a_4 <= 29
 0 <= y_a_5 <= 37
 0 <= y_a_6 <= 9
 0 <= y_a_7 <= 26
 0 <= y_a_8 <= 25
 0 <= y_a_9 <= 27
 0 <= y_a_10 <= 1
 0 <= y_a_11 <= 9
 0 <= y_a_12 <= 25
 0 <= y_a_13 <= 24
 0 <= y_a_14 <= 37
 0 <= y_a_15 <= 36
 0 <= y_a_16 <= 17
 0 <= y_a_17 <= 6
 0 <= y_a_18 <= 39
 0 <= y_a_19 <= 20
 0 <= y_a_20 <= 6
 0 <= y_a_21 <= 42
 0 <= y_a_22 <= 1
 0 <= y_a_23 <= 23
 0 <= y_a_24 <= 36
 0 <= y_a_25 <= 44
 0 <= y_a_26 <= 33
 0 <= y_a_27 <= 25
 0 <= y_a_28 <= 40
 0 <= y_a_29 <= 1
 0 <= y_a_30 <= 10
 0 <= y_a_31 <= 41
 0 <= y_a_32 <= 47
 0 <= y_a_33 <= 32
 0 <= y_a_34 <= 37
 0 <= y_a_35 <= 39
 0 <= y_a_36 <= 41
 0 <= y_a_37 <= 12
 0 <= y_a_38 <= 4
 0 <= y_a_39 <= 2
 0 <= y_a_40 <= 16
 0 <= y_a_41 <= 11
 0 <= y_a_42 <= 42
 0 <= y_a_43 <= 41
 0 <= y_a_44 <= 41
 0 <= y_a_45 <= 14
 0 <= y_a_46 <= 7
 0 <= y_a_47 <= 40
 0 <= y_a_48 <= 9
 0 <= y_a_49 <= 14
 0 <= y_a_50 <= 32
 0 <= y_a_51 <= 9
 0 <= y_a_52 <= 35
 0 <= y_a_53 <= 48
 0 <= y_a_70 <= 50000000
 0 <= y_a_72 <= 50000000
 0 <= y_a_54 <= 49
 0 <= y_a_55 <= 43
 0 <= y_a_56 <= 18
 0 <= y_a_57 <= 49
 0 <= y_a_69 <= 50000000
 0 <= y_a_58 <= 32
 0 <= y_a_59 <= 43
 0 <= y_a_60 <= 16
 0 <= y_a_61 <= 44
 0 <= y_a_62 <= 22
 0 <= y_a_63 <= 14
 0 <= y_a_64 <= 35
 0 <= y_a_71 <= 50000000
 0 <= y_a_73 <= 10000
 0 <= x_a_0 <= 1
 0 <= x_a_1 <= 1
 0 <= x_a_2 <= 1
 0 <= x_a_3 <= 1
 0 <= x_a_4 <= 1
 0 <= x_a_5 <= 1
 0 <= x_a_6 <= 1
 0 <= x_a_7 <= 1
 0 <= x_a_8 <= 1
 0 <= x_a_9 <= 1
 0 <= x_a_10 <= 1
 0 <= x_a_11 <= 1
 0 <= x_a_12 <= 1
 0 <= x_a_13 <= 1
 0 <= x_a_14 <= 1
 0 <= x_a_15 <= 1
 0 <= x_a_16 <= 1
 0 <= x_a_17 <= 1
 0 <= x_a_18 <= 1
 0 <= x_a_19 <= 1
 0 <= x_a_20 <= 1
 0 <= x_a_21 <= 1
 0 <= x_a_22 <= 1
 0 <= x_a_23 <= 1
 0 <= x_a_24 <= 1
 0 <= x_a_25 <= 1
 0 <= x_a_26 <= 1
 0 <= x_a_27 <= 1
 0 <= x_a_28 <= 1
 0 <= x_a_29 <= 1
 0 <= x_a_30 <= 1
 0 <= x_a_31 <= 1
 0 <= x_a_32 <= 1
 0 <= x_a_33 <= 1
 0 <= x_a_34 <= 1
 0 <= x_a_35 <= 1
 0 <= x_a_36 <= 1
 0 <= x_a_37 <= 1
 0 <= x_a_38 <= 1
 0 <= x_a_39 <= 1
 0 <= x_a_40 <= 1
 0 <= x_a_41 <= 1
 0 <= x_a_42 <= 1
 0 <= x_a_43 <= 1
 0 <= x_a_44 <= 1
 0 <= x_a_45 <= 1
 0 <= x_a_46 <= 1
 0 <= x_a_47 <= 1
 0 <= x_a_48 <= 1
 0 <= x_a_49 <= 1
 0 <= x_a_50 <= 1
 0 <= x_a_51 <= 1
 0 <= x_a_52 <= 1
 0 <= x_a_53 <= 1
 0 <= x_a_54 <= 1
 0 <= x_a_55 <= 1
 0 <= x_a_56 <= 1
 0 <= x_a_57 <= 1
 0 <= x_a_58 <= 1
 0 <= x_a_59 <= 1
 0 <= x_a_60 <= 1
 0 <= x_a_61 <= 1
 0 <= x_a_62 <= 1
 0 <= x_a_63 <= 1
 0 <= x_a_64 <= 1
 0 <= x_a_65 <= 1
 0 <= x_a_66 <= 1
 0 <= x_a_67 <= 1
 0 <= x_a_68 <= 1
 0 <= x_a_69 <= 1
 0 <= x_a_70 <= 1
 0 <= x_a_71 <= 1
 0 <= x_a_72 <= 1
 0 <= x_a_73 <= 1
Binaries
 y_a_10  y_a_22  y_a_29  x_a_0  x_a_1  x_a_2  x_a_3  x_a_4  x_a_5  x_a_6 
 x_a_7  x_a_8  x_a_9  x_a_10  x_a_11  x_a_12  x_a_13  x_a_14  x_a_15  x_a_16 
 x_a_17  x_a_18  x_a_19  x_a_20  x_a_21  x_a_22  x_a_23  x_a_24  x_a_25 
 x_a_26  x_a_27  x_a_28  x_a_29  x_a_30  x_a_31  x_a_32  x_a_33  x_a_34 
 x_a_35  x_a_36  x_a_37  x_a_38  x_a_39  x_a_40  x_a_41  x_a_42  x_a_43 
 x_a_44  x_a_45  x_a_46  x_a_47  x_a_48  x_a_49  x_a_50  x_a_51  x_a_52 
 x_a_53  x_a_54  x_a_55  x_a_56  x_a_57  x_a_58  x_a_59  x_a_60  x_a_61 
 x_a_62  x_a_63  x_a_64  x_a_65  x_a_66  x_a_67  x_a_68  x_a_69  x_a_70 
 x_a_71  x_a_72  x_a_73 
Generals
 y_a_65  y_a_66  y_a_67  y_a_68  y_a_0  y_a_1  y_a_2  y_a_3  y_a_4  y_a_5 
 y_a_6  y_a_7  y_a_8  y_a_9  y_a_11  y_a_12  y_a_13  y_a_14  y_a_15  y_a_16 
 y_a_17  y_a_18  y_a_19  y_a_20  y_a_21  y_a_23  y_a_24  y_a_25  y_a_26 
 y_a_27  y_a_28  y_a_30  y_a_31  y_a_32  y_a_33  y_a_34  y_a_35  y_a_36 
 y_a_37  y_a_38  y_a_39  y_a_40  y_a_41  y_a_42  y_a_43  y_a_44  y_a_45 
 y_a_46  y_a_47  y_a_48  y_a_49  y_a_50  y_a_51  y_a_52  y_a_53  y_a_70 
 y_a_72  y_a_54  y_a_55  y_a_56  y_a_57  y_a_69  y_a_58  y_a_59  y_a_60 
 y_a_61  y_a_62  y_a_63  y_a_64  y_a_71  y_a_73 
End
